c Generated map
c Size: 9 * 9, weights in range: 1 to 10, walls: True, with ratio 0.1
c dim 5 of 8
c
p sp 81 117
c graph contains 81 nodes and 117 arcs
c
a 1 10 6
a 10 1 6
a 1 2 7
a 2 1 7
a 2 11 7
a 11 2 7
a 2 3 6
a 3 2 6
a 3 12 3
a 12 3 3
a 3 4 6
a 4 3 6
a 4 13 2
a 13 4 2
a 4 5 10
a 5 4 10
a 5 14 6
a 14 5 6
a 5 6 7
a 6 5 7
a 6 15 6
a 15 6 6
a 8 9 4
a 9 8 4
a 9 18 4
a 18 9 4
a 10 19 2
a 19 10 2
a 10 11 2
a 11 10 2
a 11 20 6
a 20 11 6
a 11 12 7
a 12 11 7
a 12 21 9
a 21 12 9
a 12 13 6
a 13 12 6
a 13 22 6
a 22 13 6
a 13 14 8
a 14 13 8
a 14 23 8
a 23 14 8
a 14 15 7
a 15 14 7
a 15 24 10
a 24 15 10
a 15 16 10
a 16 15 10
a 16 25 6
a 25 16 6
a 18 27 10
a 27 18 10
a 19 28 10
a 28 19 10
a 19 20 5
a 20 19 5
a 20 29 1
a 29 20 1
a 20 21 8
a 21 20 8
a 21 30 9
a 30 21 9
a 21 22 8
a 22 21 8
a 22 23 3
a 23 22 3
a 23 32 2
a 32 23 2
a 23 24 9
a 24 23 9
a 24 33 3
a 33 24 3
a 24 25 7
a 25 24 7
a 25 34 3
a 34 25 3
a 25 26 8
a 26 25 8
a 26 35 6
a 35 26 6
a 26 27 9
a 27 26 9
a 27 36 1
a 36 27 1
a 28 37 9
a 37 28 9
a 28 29 6
a 29 28 6
a 29 38 6
a 38 29 6
a 29 30 1
a 30 29 1
a 30 39 5
a 39 30 5
a 32 41 6
a 41 32 6
a 32 33 6
a 33 32 6
a 33 42 6
a 42 33 6
a 33 34 9
a 34 33 9
a 34 43 7
a 43 34 7
a 34 35 7
a 35 34 7
a 35 44 1
a 44 35 1
a 35 36 10
a 36 35 10
a 36 45 9
a 45 36 9
a 37 46 8
a 46 37 8
a 37 38 10
a 38 37 10
a 38 47 8
a 47 38 8
a 38 39 4
a 39 38 4
a 39 48 3
a 48 39 3
a 39 40 1
a 40 39 1
a 40 49 5
a 49 40 5
a 40 41 8
a 41 40 8
a 41 50 3
a 50 41 3
a 41 42 2
a 42 41 2
a 42 43 1
a 43 42 1
a 43 52 7
a 52 43 7
a 43 44 9
a 44 43 9
a 44 53 7
a 53 44 7
a 44 45 7
a 45 44 7
a 46 55 7
a 55 46 7
a 46 47 8
a 47 46 8
a 47 56 10
a 56 47 10
a 47 48 8
a 48 47 8
a 48 57 3
a 57 48 3
a 48 49 7
a 49 48 7
a 49 58 3
a 58 49 3
a 49 50 6
a 50 49 6
a 52 61 2
a 61 52 2
a 52 53 7
a 53 52 7
a 53 62 6
a 62 53 6
a 55 64 8
a 64 55 8
a 55 56 4
a 56 55 4
a 56 65 7
a 65 56 7
a 56 57 6
a 57 56 6
a 57 66 10
a 66 57 10
a 57 58 1
a 58 57 1
a 58 67 5
a 67 58 5
a 60 69 5
a 69 60 5
a 60 61 1
a 61 60 1
a 61 70 9
a 70 61 9
a 61 62 2
a 62 61 2
a 62 71 2
a 71 62 2
a 62 63 8
a 63 62 8
a 63 72 7
a 72 63 7
a 64 65 8
a 65 64 8
a 65 74 6
a 74 65 6
a 65 66 8
a 66 65 8
a 66 75 1
a 75 66 1
a 66 67 8
a 67 66 8
a 67 76 7
a 76 67 7
a 69 78 3
a 78 69 3
a 69 70 9
a 70 69 9
a 70 79 7
a 79 70 7
a 70 71 5
a 71 70 5
a 71 80 3
a 80 71 3
a 71 72 7
a 72 71 7
a 72 81 10
a 81 72 10
a 74 75 5
a 75 74 5
a 75 76 1
a 76 75 1
a 76 77 3
a 77 76 3
a 77 78 1
a 78 77 1
a 78 79 2
a 79 78 2
a 79 80 1
a 80 79 1
a 80 81 7
a 81 80 7
